8138
28, 27, 13, 14, 52, 11, 51, 12, 25, 4, 6, 5, 15, 43, 33, 10, 9, 8, 41, 19, 45, 3, 18, 31, 23, 20, 50, 30, 42, 2, 7, 17, 21, 22, 1, 32, 49, 36, 35, 34, 39, 40, 37, 38, 24, 48, 46, 44, 16, 29, 47, 26
